certificates/rado_a15_c68_N60.drat
1 -60 0
5 -60 0
-60 0
8 0
-5 0
12 0
53 0
-4 0
-1 0
9 0
52 0
11 0
13 0
54 0
7 0
58 0
57 0
-2 0
-44 0
-59 0
-45 0
-46 0
-48 0
-49 0
-50 0
-15 0
-16 0
-17 0
-20 0
-6 0
-21 0
39 0
40 0
55 0
22 0
0
